
******************************************************************************
This program contains Ipopt, a library for large-scale nonlinear optimization.
 Ipopt is released as open source code under the Eclipse Public License (EPL).
         For more information visit http://projects.coin-or.org/Ipopt

This version of Ipopt was compiled from source code available at
    https://github.com/IDAES/Ipopt as part of the Institute for the Design of
    Advanced Energy Systems Process Systems Engineering Framework (IDAES PSE
    Framework) Copyright (c) 2018-2019. See https://github.com/IDAES/idaes-pse.

This version of Ipopt was compiled using HSL, a collection of Fortran codes
    for large-scale scientific computation.  All technical papers, sales and
    publicity material resulting from use of the HSL codes within IPOPT must
    contain the following acknowledgement:
        HSL, a collection of Fortran codes for large-scale scientific
        computation. See http://www.hsl.rl.ac.uk.
******************************************************************************

This is Ipopt version 3.13.2, running with linear solver ma27.

Number of nonzeros in equality constraint Jacobian...:      808
Number of nonzeros in inequality constraint Jacobian.:        0
Number of nonzeros in Lagrangian Hessian.............:      702

Total number of variables............................:      351
                     variables with only lower bounds:      108
                variables with lower and upper bounds:      189
                     variables with only upper bounds:        0
Total number of equality constraints.................:      350
Total number of inequality constraints...............:        0
        inequality constraints with only lower bounds:        0
   inequality constraints with lower and upper bounds:        0
        inequality constraints with only upper bounds:        0

iter    objective    inf_pr   inf_du lg(mu)  ||d||  lg(rg) alpha_du alpha_pr  ls
   0  0.0000000e+00 4.44e-01 1.78e-15  -1.0 0.00e+00    -  0.00e+00 0.00e+00   0
   1  1.6289897e+00 3.18e-01 9.53e+03  -1.0 2.59e+05    -  6.93e-01 3.01e-01h  1
   2  1.7185439e+00 3.15e-01 9.58e+03  -1.0 2.30e+05    -  7.55e-01 1.09e-02h  1
   3  2.5078520e+01 4.30e-02 1.21e+04  -1.0 2.55e+05    -  7.59e-01 9.90e-01h  1
   4  3.1204457e+01 1.34e-03 6.99e+02  -1.0 3.90e+04    -  9.55e-01 9.90e-01h  1
   5  3.1382718e+01 1.43e-05 5.88e+00  -1.0 1.11e+03    -  9.90e-01 9.90e-01h  1
   6  3.1383013e+01 1.42e-05 1.43e+07  -1.0 9.57e+02    -  9.90e-01 3.87e-03f  9
   7  3.1384805e+01 1.40e-05 2.82e+07  -1.0 1.46e+03    -  9.90e-01 1.55e-02f  7
   8  3.1498643e+01 8.54e-05 4.29e+05  -1.0 1.46e+03    -  1.00e+00 9.90e-01H  1
   9  3.1497983e+01 8.36e-07 1.47e+07  -1.0 8.75e+00    -  1.00e+00 9.90e-01h  1
iter    objective    inf_pr   inf_du lg(mu)  ||d||  lg(rg) alpha_du alpha_pr  ls
  10  3.1497985e+01 8.36e-09 1.47e+09  -1.0 2.88e-02    -  1.00e+00 9.90e-01h  1
  11  3.1497985e+01 8.40e-11 1.47e+11  -1.0 2.87e-04    -  1.00e+00 9.90e-01h  1
In iteration 11, 27 Slacks too small, adjusting variable bounds
  12  3.1497985e+01 1.43e-12 1.47e+13  -1.0 3.16e-06    -  1.00e+00 9.90e-01h  1
  13  3.1497985e+01 1.71e-12 1.19e-01  -1.0 8.92e-08    -  1.00e+00 1.00e+00h  1
  14  3.1497985e+01 1.76e-12 1.50e+13  -9.0 1.71e+03    -  9.98e-01 6.57e-06f 18
  15  3.1497984e+01 1.97e-12 1.50e+13  -9.0 1.47e+03    -  9.99e-01 4.76e-07f 22
  16  3.1497981e+01 9.13e-13 1.50e+13  -9.0 1.47e+03    -  1.00e+00 3.05e-05f 16
  17  3.1497981e+01 1.15e-12 1.50e+13  -9.0 1.47e+03    -  1.00e+00 1.19e-07f 24
  18  3.1497981e+01 1.19e-12 1.50e+13  -9.0 1.47e+03    -  1.00e+00 2.91e-11h 36
  19  3.1383388e+01 9.81e-04 1.80e+00  -9.0 1.47e+03    -  1.00e+00 1.00e+00f  1
iter    objective    inf_pr   inf_du lg(mu)  ||d||  lg(rg) alpha_du alpha_pr  ls
  20  3.1382134e+01 4.60e-09 3.47e-04  -9.0 1.53e+01    -  1.00e+00 1.00e+00h  1
  21  3.1382134e+01 6.41e-12 2.91e-11  -9.0 1.63e-04    -  1.00e+00 1.00e+00h  1

Number of Iterations....: 21

                                   (scaled)                 (unscaled)
Objective...............:   3.1382134487122524e+01    3.1382134487122524e+01
Dual infeasibility......:   2.9103830456733704e-11    2.9103830456733704e-11
Constraint violation....:   6.4104277441856539e-12    6.4104277441856539e-12
Complementarity.........:   9.0909091315843700e-10    9.0909091315843700e-10
Overall NLP error.......:   1.2084833347457308e-11    9.0909091315843700e-10


Number of objective function evaluations             = 174
Number of objective gradient evaluations             = 22
Number of equality constraint evaluations            = 174
Number of inequality constraint evaluations          = 0
Number of equality constraint Jacobian evaluations   = 22
Number of inequality constraint Jacobian evaluations = 0
Number of Lagrangian Hessian evaluations             = 21
Total CPU secs in IPOPT (w/o function evaluations)   =      0.055
Total CPU secs in NLP function evaluations           =      1.170

EXIT: Optimal Solution Found.
